# Objective value = 5
x0,1_6 0
x0,1_9 0
x0,1_15 0
x0,1_22 0
x0,1_31 0
x0,2_6 0
x0,2_9 0
x0,2_15 0
x0,2_22 0
x0,2_31 0
x0,3_6 0
x0,3_9 0
x0,3_15 0
x0,3_22 1
x0,3_31 0
x0,4_6 0
x0,4_9 0
x0,4_15 0
x0,4_22 0
x0,4_31 1
x1,2_6 1
x1,2_9 0
x1,2_15 0
x1,2_22 0
x1,2_31 0
x1,3_6 0
x1,3_9 0
x1,3_15 0
x1,3_22 0
x1,3_31 0
x1,4_6 0
x1,4_9 0
x1,4_15 0
x1,4_22 0
x1,4_31 0
x2,3_6 0
x2,3_9 0
x2,3_15 1
x2,3_22 0
x2,3_31 0
x2,4_6 0
x2,4_9 0
x2,4_15 0
x2,4_22 0
x2,4_31 0
x3,4_6 0
x3,4_9 1
x3,4_15 0
x3,4_22 0
x3,4_31 0
p0 0
p1 1
p2 7
p3 22
p4 31
